\ This file has been generated by DOcplex
\ ENCODING=ISO-8859-1
\Problem name: Market Sharing Problem

Minimize
 obj: s_plus_0 + s_plus_1 + s_plus_2 + s_minus_0 + s_minus_1 + s_minus_2
Subject To
 demand_constraint_0: 24 x_0 + 3 x_1 + 56 x_2 + 72 x_3 + 21 x_5 + 19 x_6
                      + 74 x_7 + 41 x_8 + 10 x_9 + 21 x_10 + 38 x_11 + 96 x_12
                      + 20 x_13 + 44 x_14 + 93 x_15 + 39 x_16 + 14 x_17
                      + 26 x_18 + 81 x_19 + s_plus_0 - s_minus_0 = 396
 demand_constraint_1: 90 x_0 + 22 x_1 + 66 x_2 + 2 x_3 + 63 x_4 + 60 x_5 + x_6
                      + 51 x_7 + 90 x_8 + 69 x_9 + 97 x_10 + 29 x_11 + 24 x_12
                      + 62 x_13 + 7 x_14 + 43 x_15 + 33 x_16 + 79 x_17 + 48 x_18
                      + 37 x_19 + s_plus_1 - s_minus_1 = 486
 demand_constraint_2: 20 x_0 + 94 x_1 + 49 x_2 + 21 x_3 + 78 x_4 + 28 x_5
                      + 54 x_6 + 64 x_8 + 18 x_9 + 63 x_10 + 37 x_11 + 56 x_12
                      + 56 x_13 + 71 x_14 + 37 x_15 + 46 x_16 + 33 x_17 + x_18
                      + 85 x_19 + s_plus_2 - s_minus_2 = 455

Bounds
 0 <= x_0 <= 1
 0 <= x_1 <= 1
 0 <= x_2 <= 1
 0 <= x_3 <= 1
 0 <= x_4 <= 1
 0 <= x_5 <= 1
 0 <= x_6 <= 1
 0 <= x_7 <= 1
 0 <= x_8 <= 1
 0 <= x_9 <= 1
 0 <= x_10 <= 1
 0 <= x_11 <= 1
 0 <= x_12 <= 1
 0 <= x_13 <= 1
 0 <= x_14 <= 1
 0 <= x_15 <= 1
 0 <= x_16 <= 1
 0 <= x_17 <= 1
 0 <= x_18 <= 1
 0 <= x_19 <= 1
       s_plus_0 <= 792
       s_plus_1 <= 973
       s_plus_2 <= 911
       s_minus_0 <= 792
       s_minus_1 <= 973
       s_minus_2 <= 911

Binaries
 x_0 x_1 x_2 x_3 x_4 x_5 x_6 x_7 x_8 x_9 x_10 x_11 x_12 x_13 x_14 x_15 x_16 x_17
 x_18 x_19

Generals
 s_plus_0 s_plus_1 s_plus_2 s_minus_0 s_minus_1 s_minus_2
End
